(set-logic QF_BV)
(declare-fun _substvar_240_ () (_ BitVec 15))
(declare-fun _substvar_247_ () (_ BitVec 15))
(declare-fun _substvar_258_ () (_ BitVec 15))
(declare-fun _substvar_252_ () (_ BitVec 15))
(declare-fun _substvar_127_ () (_ BitVec 15))
(declare-fun _substvar_262_ () (_ BitVec 15))
(declare-fun _substvar_353_ () Bool)
(assert (and true true true true true true true true true true true true true true true true true true true true true true true true true true (= _substvar_127_ (_ bv0 15)) (ite _substvar_353_ (= _substvar_240_ (_ bv0 15)) (= _substvar_240_ (concat ((_ extract 13 0) _substvar_127_) (_ bv0 1)))) (= _substvar_247_ (concat ((_ extract 13 0) _substvar_240_) (bvxor ((_ extract 14 14) _substvar_240_) ((_ extract 13 13) _substvar_240_)))) (= _substvar_252_ (concat ((_ extract 13 0) _substvar_247_) (bvxor ((_ extract 14 14) _substvar_247_) (_ bv0 1)))) (= _substvar_258_ (concat ((_ extract 13 0) _substvar_252_) (bvxor ((_ extract 14 14) _substvar_252_) (_ bv0 1)))) (= _substvar_262_ (concat ((_ extract 13 0) _substvar_258_) (_ bv0 1))) true true true (= (= (_ bv0 15) _substvar_262_) false)))
(check-sat)
(exit)
